92 130 84 89 
170 112 50 19 24 115 94 12 116 11 78 
191 90 119 127 83 142 111 199 144 
62 59 160 141 140 15 123 172 
93 44 196 43 124 105 68 198 71 
32 197 31 169 14 96 87 29 195 135 
76 149 30 179 147 109 1 53 81 17 155 
113 103 104 60 188 165 95 158 190 175 
177 152 22 79 163 52 145 21 41 
4 171 125 33 36 13 108 193 34 
159 57 176 61 139 99 183 137 67 
27 178 26 156 153 75 28 102 38 114 63 
45 120 173 40 74 146 133 162 20 106 
131 166 58 35 132 98 157 186 18 185 117 
85 134 182 2 66 65 136 86 189 77 
73 200 192 6 70 110 126 72 167 
148 69 129 25 121 164 39 107 91 
161 80 97 16 55 138 101 128 
3 88 150 168 174 154 82 
46 5 10 143 151 181 187 49 42 
118 54 184 37 9 7 56 
48 8 122 100 64 
23 47 51 
180 194 

